networks/zoo_16_56/zoo_16_56.txt
Number of groups: 8
Flow 6: {1 7} {7 15} 
Flow 10: {2 3} {3 4} {4 12} 
Flow 14: {6 1} {1 8} {8 16} 
Flow 22: {4 5} {5 1} {1 9} 
Flow 26: {3 6} {6 14} 
Flow 30: {5 4} {4 3} {3 2} {2 10} 
Flow 45: {7 1} {1 6} {6 3} {3 11} 
Flow 54: {8 1} {1 5} {5 13} 
Time taken running everything: 0 seconds
