networks/zoo_16_56/standard/zoo_16_56.sol
<?xml version = "1.0" encoding="UTF-8" standalone="yes"?>
<CPLEXSolution version="1.2">
 <header
   problemName="networks/zoo_16_56/zoo_16_56.lp"
   solutionName="incumbent"
   solutionIndex="-1"
   objectiveValue="8"
   solutionTypeValue="3"
   solutionTypeString="primal"
   solutionStatusValue="101"
   solutionStatusString="integer optimal solution"
   solutionMethodString="mip"
   primalFeasible="1"
   dualFeasible="1"
   MIPNodes="0"
   MIPIterations="75"
   writeLevel="3"/>
 <quality
   epInt="1.0000000000000001e-05"
   epRHS="9.9999999999999995e-07"
   maxIntInfeas="0"
   maxPrimalInfeas="0"
   maxX="3"
   maxSlack="9"/>
 <variables>
  <variable name="Y(6,7)" index="86" value="1"/>
  <variable name="Y(10,4)" index="147" value="1"/>
  <variable name="Y(14,8)" index="215" value="1"/>
  <variable name="Y(22,1)" index="336" value="1"/>
  <variable name="Y(26,6)" index="405" value="1"/>
  <variable name="Y(30,2)" index="465" value="1"/>
  <variable name="Y(45,3)" index="706" value="1"/>
  <variable name="Y(54,5)" index="852" value="1"/>
  <variable name="X(1,5,54)" index="949" value="1"/>
  <variable name="X(1,6,45)" index="996" value="1"/>
  <variable name="X(1,7,6)" index="1013" value="1"/>
  <variable name="X(1,8,14)" index="1077" value="1"/>
  <variable name="X(1,9,22)" index="1141" value="1"/>
  <variable name="X(2,3,10)" index="1185" value="1"/>
  <variable name="X(2,10,30)" index="1261" value="1"/>
  <variable name="X(3,2,30)" index="1317" value="1"/>
  <variable name="X(3,4,10)" index="1353" value="1"/>
  <variable name="X(3,6,26)" index="1425" value="1"/>
  <variable name="X(3,11,45)" index="1500" value="1"/>
  <variable name="X(4,3,30)" index="1541" value="1"/>
  <variable name="X(4,5,22)" index="1589" value="1"/>
  <variable name="X(4,12,10)" index="1633" value="1"/>
  <variable name="X(5,1,22)" index="1701" value="1"/>
  <variable name="X(5,4,30)" index="1765" value="1"/>
  <variable name="X(5,13,54)" index="1845" value="1"/>
  <variable name="X(6,1,14)" index="1861" value="1"/>
  <variable name="X(6,3,45)" index="1948" value="1"/>
  <variable name="X(6,14,26)" index="1985" value="1"/>
  <variable name="X(7,1,45)" index="2060" value="1"/>
  <variable name="X(7,15,6)" index="2077" value="1"/>
  <variable name="X(8,1,54)" index="2181" value="1"/>
  <variable name="X(8,16,14)" index="2197" value="1"/>
  <variable name="C(6,7)" index="2255" value="1"/>
  <variable name="C(10,3)" index="2265" value="1"/>
  <variable name="C(10,4)" index="2266" value="1.9999999999999998"/>
  <variable name="C(14,1)" index="2282" value="1"/>
  <variable name="C(14,8)" index="2283" value="2"/>
  <variable name="C(22,5)" index="2305" value="1"/>
  <variable name="C(22,1)" index="2306" value="2"/>
  <variable name="C(26,6)" index="2316" value="1"/>
  <variable name="C(30,4)" index="2328" value="1"/>
  <variable name="C(30,3)" index="2329" value="2"/>
  <variable name="C(30,2)" index="2330" value="3"/>
  <variable name="C(45,1)" index="2372" value="1"/>
  <variable name="C(45,6)" index="2373" value="2"/>
  <variable name="C(45,3)" index="2374" value="3"/>
  <variable name="C(54,1)" index="2404" value="1"/>
  <variable name="C(54,5)" index="2405" value="2"/>
 </variables>
</CPLEXSolution>
